(set-info :smt-lib-version 2.6)
(set-logic QF_UFLRA)
(set-info :source |
MathSat group

|)
(set-info :category "random")
(set-info :status unsat)
(declare-fun x0 () Real)
(declare-fun x1 () Real)
(declare-fun x2 () Real)
(declare-fun x3 () Real)
(declare-fun x4 () Real)
(declare-fun x5 () Real)
(declare-fun x6 () Real)
(declare-fun x7 () Real)
(declare-fun x8 () Real)
(declare-fun x9 () Real)
(declare-fun x10 () Real)
(declare-fun x11 () Real)
(declare-fun x12 () Real)
(declare-fun x13 () Real)
(declare-fun x14 () Real)
(declare-fun x15 () Real)
(declare-fun x16 () Real)
(declare-fun x17 () Real)
(declare-fun x18 () Real)
(declare-fun x19 () Real)
(declare-fun x20 () Real)
(declare-fun x21 () Real)
(declare-fun x22 () Real)
(declare-fun x23 () Real)
(declare-fun x24 () Real)
(declare-fun x25 () Real)
(declare-fun x26 () Real)
(declare-fun x27 () Real)
(declare-fun x28 () Real)
(declare-fun x29 () Real)
(declare-fun f0_1 (Real) Real)
(declare-fun f0_2 (Real Real) Real)
(declare-fun f0_3 (Real Real Real) Real)
(declare-fun f0_4 (Real Real Real Real) Real)
(declare-fun P0 () Bool)
(declare-fun P1 () Bool)
(declare-fun P2 () Bool)
(declare-fun P3 () Bool)
(declare-fun P4 () Bool)
(declare-fun P5 () Bool)
(declare-fun P6 () Bool)
(declare-fun P7 () Bool)
(declare-fun P8 () Bool)
(declare-fun P9 () Bool)
(declare-fun P10 () Bool)
(declare-fun P11 () Bool)
(declare-fun P12 () Bool)
(declare-fun P13 () Bool)
(declare-fun P14 () Bool)
(declare-fun P15 () Bool)
(declare-fun P16 () Bool)
(declare-fun P17 () Bool)
(declare-fun P18 () Bool)
(declare-fun P19 () Bool)
(declare-fun P20 () Bool)
(declare-fun P21 () Bool)
(declare-fun P22 () Bool)
(declare-fun P23 () Bool)
(declare-fun P24 () Bool)
(declare-fun P25 () Bool)
(declare-fun P26 () Bool)
(declare-fun P27 () Bool)
(declare-fun P28 () Bool)
(declare-fun P29 () Bool)
(assert (let ((?v_36 (* 14 x18)) (?v_33 (* 19 x26)) (?v_17 (= (- (- (* 13 x7) (* 2 x23)) (* 42 x3)) 39)) (?v_110 (< (+ (- (* 9 x5) (* 15 x19)) (* 26 x29)) 15)) (?v_28 (< (+ (- (* 26 x2) (* 27 x3)) (* 40 x15)) 12)) (?v_0 (<= (- (- (* 19 x20) (* 8 x13)) (* 36 x18)) 38)) (?v_2 (f0_1 x13))) (let ((?v_71 (= ?v_2 x9)) (?v_7 (f0_1 x24))) (let ((?v_86 (distinct x23 ?v_7)) (?v_21 (distinct (f0_1 x12) (f0_2 x7 x23))) (?v_27 (distinct x21 (f0_2 x29 x10))) (?v_61 (distinct (f0_2 x29 x3) (f0_2 x2 x16))) (?v_98 (= (f0_1 x15) x18)) (?v_137 (distinct (f0_2 x24 x6) (f0_2 x8 x20))) (?v_5 (distinct ?v_7 ?v_2)) (?v_8 (f0_1 x29))) (let ((?v_127 (distinct x8 ?v_8)) (?v_11 (= (f0_2 x19 x23) x22)) (?v_104 (= (f0_1 x10) (f0_2 x14 x25))) (?v_19 (distinct x14 x9)) (?v_94 (distinct (f0_2 x11 x19) (f0_2 x25 x12))) (?v_62 (= x26 ?v_8)) (?v_32 (distinct x19 (f0_2 x0 x0))) (?v_93 (= (f0_2 x26 x29) (f0_2 x2 x15))) (?v_129 (= (f0_2 x15 x13) x7)) (?v_30 (= (f0_2 x21 x1) (f0_2 x6 x7))) (?v_77 (= x1 x16)) (?v_40 (distinct x9 x25)) (?v_100 (= (f0_2 x27 x18) x18)) (?v_67 (= (f0_2 x8 x24) x3)) (?v_53 (distinct x22 (f0_2 x18 x25))) (?v_75 (= (f0_1 x25) (f0_2 x1 x9))) (?v_42 (= (f0_1 x16) (f0_2 x16 x18))) (?v_131 (= x17 x25)) (?v_52 (= ?v_7 x4)) (?v_63 (distinct x8 x14)) (?v_46 (= (f0_1 x14) (f0_2 x9 x8))) (?v_74 (= (f0_2 x29 x0) (f0_2 x25 x7))) (?v_4 (not P15)) (?v_56 (not P27)) (?v_12 (not ?v_17)) (?v_26 (not P29)) (?v_14 (not P26)) (?v_108 (not ?v_5)) (?v_31 (not ?v_0)) (?v_112 (not P5)) (?v_18 (not P10)) (?v_22 (not ?v_71)) (?v_13 (not P20))) (let ((?v_15 (not ?v_75)) (?v_84 (not ?v_53)) (?v_90 (not ?v_27)) (?v_37 (not ?v_62)) (?v_118 (not P23)) (?v_47 (not ?v_21)) (?v_73 (not ?v_137)) (?v_116 (not ?v_11)) (?v_39 (not P7)) (?v_105 (not P8)) (?v_45 (not P25)) (?v_25 (not P1)) (?v_64 (not P2)) (?v_122 (not ?v_28)) (?v_82 (not ?v_30)) (?v_97 (not P14)) (?v_34 (not ?v_32)) (?v_80 (not ?v_67)) (?v_48 (not ?v_74)) (?v_57 (not ?v_46)) (?v_107 (not ?v_110)) (?v_140 (not ?v_42)) (?v_124 (not P12)) (?v_111 (not P21)) (?v_141 (not ?v_61)) (?v_72 (not P6)) (?v_154 (not ?v_52)) (?v_68 (not ?v_63)) (?v_85 (not ?v_40)) (?v_132 (not ?v_94)) (?v_76 (not P17)) (?v_79 (not P24)) (?v_134 (not P22)) (?v_106 (not ?v_98)) (?v_119 (not ?v_77)) (?v_136 (not ?v_131)) (?v_91 (not P4)) (?v_95 (not ?v_93)) (?v_120 (not ?v_129)) (?v_121 (not ?v_100)) (?v_109 (not P28)) (?v_152 (not ?v_104)) (?v_144 (not P13)) (?v_117 (not P9)) (?v_139 (not ?v_19)) (?v_130 (not ?v_127)) (?v_148 (not P18)) (?v_145 (not ?v_86)) (?v_146 (not P19)) (?v_151 (not P3))) (let ((?v_149 (or ?v_111 P20)) (?v_143 (not P11)) (?v_153 (not P16)) (?v_89 (<= (- (- (* 10 x7) (* 22 x25)) x6) 35))) (let ((?v_1 (not ?v_89)) (?v_41 (< (- (- (* 29 x21) (* 21 x4)) 0) 10)) (?v_54 (< (+ (* 9 x13) (* 15 x20) (* 15 x2)) 20))) (let ((?v_66 (not ?v_54)) (?v_60 (not ?v_41)) (?v_87 (< (+ (* 36 x25) (* 39 x24) (* 19 x7)) 9))) (let ((?v_102 (not ?v_87)) (?v_20 (distinct (- (+ (* (- 33) x6) (* 31 x13)) ?v_33) (- 7)))) (let ((?v_114 (not ?v_20)) (?v_9 (< (- (- (* 2 x20) (* 13 x28)) 0) (- 8)))) (let ((?v_23 (not ?v_9)) (?v_3 (<= (+ (* (- 32) x6) (* 18 x14) ?v_36) (- 16))) (?v_123 (<= (- (+ (* 18 x18) (* 12 x9)) (* 35 x25)) (- 44)))) (let ((?v_16 (not ?v_123)) (?v_59 (< (+ (* (- 34) x13) (* 18 x3) (* 5 x9)) 21)) (?v_29 (<= (+ (- (* (- 39) x23) (* 37 x2)) (* 18 x13)) 1))) (let ((?v_101 (not ?v_29)) (?v_10 (not ?v_3)) (?v_55 (< (- (- (* 11 x6) (* 3 x13)) (* 41 x27)) (- 4))) (?v_6 (distinct (+ (- (* (- 31) x6) 0) (* 38 x17)) (- 22))) (?v_103 (= (+ (- (* 4 x28) (* 21 x2)) (* 42 x8)) (- 35)))) (let ((?v_38 (not ?v_6)) (?v_35 (<= (- (- (* (- 14) x10) (* 17 x22)) (* 38 x6)) (- 35)))) (let ((?v_44 (not ?v_35)) (?v_24 (= (+ (* 29 x7) (* 6 x28) (* 9 x11)) (- 35))) (?v_58 (distinct (- (+ (* 12 x21) (* 9 x16)) (* 27 x18)) (- 7))) (?v_92 (< (- (- (* 14 x5) (* 40 x27)) (* 5 x10)) (- 11))) (?v_50 (<= (- (- (* 27 x29) (* 40 x24)) (* 31 x18)) (- 5)))) (let ((?v_147 (not ?v_24)) (?v_65 (<= (+ (* (- 18) x5) (* 11 x20) (* 16 x28)) 38)) (?v_99 (<= (- (+ (* 26 x7) ?v_33) (* 39 x15)) (- 35))) (?v_51 (<= (- (+ (* (- 30) x28) x1) (* 39 x16)) (- 43))) (?v_78 (<= (+ (* 16 x9) ?v_36 (* 20 x24)) (- 10))) (?v_43 (< (- (- (* 33 x28) (* 3 x3)) (* 6 x29)) (- 36))) (?v_49 (<= (+ (* (- 34) x26) (* 19 x15) (* 24 x19)) 22))) (let ((?v_88 (not ?v_49)) (?v_133 (not ?v_50)) (?v_70 (not ?v_51)) (?v_81 (not ?v_59)) (?v_83 (= (- (- (* (- 26) x19) (* 16 x19)) 0) (- 17)))) (let ((?v_125 (not ?v_83)) (?v_113 (not ?v_65)) (?v_69 (not ?v_55)) (?v_126 (not ?v_43)) (?v_96 (not ?v_92)) (?v_115 (not ?v_58)) (?v_135 (not ?v_99)) (?v_128 (not ?v_103)) (?v_150 (<= (+ (- (* (- 3) x9) (* 28 x20)) (* 36 x23)) 34))) (let ((?v_138 (not ?v_150)) (?v_142 (not ?v_78))) (and (and (and (and (and (and (and (and (and (and (and (and (and (and (and (and (and (and (and (and (and (and (and (and (and (and (and (and (and (and (and (and (and (and (and (and (and (and (and (and (and (and (and (and (and (and (and (and (and (and (and (and (and (and (and (and (and (and (and (and (and (and (and (and (and (and (and (and (and (and (and (and (and (and (and (and (and (and (and (and (and (and (and (and (and (and (and (and (and (and (and (and (and (and (and (and (and (and (and (and (and (and (and (and (and (and (and (and (and (and (and (and (and (and (and (and (and (and (and (and (and (and (and (and (and (and (and (and (and (and (and (and (and (and (and (and (and (and (and (and (and (and (and (and (and (and (and (and (and (and (and (and (and (and (and (and (and (and (and (and (and (and (and (and (and (and (and (and (and (and (and (and (and (and (and (and (and (and (and (and (and (and (and (and (and (and (and (and (and (and (and (and (and (and (and (and (and (and (and (and (and (and (and (and (and (and (and (and (and (and (and (and (and (and (and (and (and (and (and (and (and (and (and (and (and (and (and (and (and (and (and (and (and (and (and (and (and (and (and (and (and (and (and (and (and (and (and (and (and (and (and (and (and (and (and (and (and (and (and (and (and (and (and (and (and (and (and (and (and (and (and (and (and (and (and (and (and (and (and (and (and (and (and (and (and (and (and (and (and (and (and (and (and (and (and (and (and (and (and (and (and (and (and (and (and (and (and (and (and (and (and (and (and (and (and (and (and (and (and (and (and (and (and (and (and (and (and (and (and (and (and (and (and (and (and (and (and (and (and (and (and (and (and (and (and (and (and (and (and (and (and (and (and (and (and (and (and (and (and (and (and (and (and (and (and (and (and (and (and (and (and (and (and (and (and (and (and (and (and (and (and (and (and (and (and (and (and (and (and (and (and (and (and (and (and (and (and (and (and (and (and (and (and (and (and (and (and (and (and (and (and (and (and (and (and (and (and (and (and (and (and (and (and (and (and (and (and (and (and (and (and (and (and (and (and (and (and (and (and (and (and (and (and (and (and (and (and (and (and (or (or ?v_114 ?v_23) ?v_0) (or (or ?v_4 ?v_56) ?v_12)) (or (or P25 ?v_3) ?v_30)) (or (or ?v_16 ?v_26) ?v_1)) (or (or ?v_14 ?v_127) ?v_59)) (or (or ?v_108 ?v_19) ?v_31)) (or (or ?v_1 ?v_112) P14)) (or (or P23 ?v_18) ?v_101)) (or (or ?v_22 ?v_10) ?v_55)) (or (or ?v_13 P1) ?v_4)) (or (or ?v_6 ?v_103) ?v_5)) (or (or ?v_38 ?v_15) ?v_86)) (or (or ?v_44 ?v_84) ?v_90)) (or (or ?v_37 ?v_118) ?v_61)) (or (or P6 ?v_9) ?v_10)) (or (or ?v_28 P2) ?v_47)) (or (or P18 P14) ?v_11)) (or (or ?v_73 ?v_41) ?v_116)) (or (or ?v_46 ?v_12) ?v_13)) (or (or ?v_14 ?v_24) ?v_15)) (or (or ?v_32 ?v_16) ?v_39)) (or (or ?v_17 ?v_18) ?v_19)) (or (or P20 ?v_20) ?v_58)) (or (or P7 P6) ?v_92)) (or (or ?v_105 ?v_10) ?v_45)) (or (or ?v_1 ?v_21) ?v_50)) (or (or ?v_40 ?v_22) ?v_23)) (or (or P8 ?v_25) P20)) (or (or P10 ?v_147) ?v_25)) (or (or ?v_26 ?v_64) ?v_16)) (or (or ?v_27 ?v_122) ?v_29)) (or (or ?v_66 ?v_82) ?v_5)) (or (or P20 ?v_31) P1)) (or (or ?v_97 ?v_65) ?v_19)) (or (or ?v_34 ?v_6) ?v_29)) (or (or P22 ?v_99) ?v_34)) (or (or ?v_35 ?v_51) ?v_78)) (or (or ?v_3 ?v_37) ?v_43)) (or (or ?v_38 P14) ?v_80)) (or (or ?v_22 P19) ?v_42)) (or (or ?v_39 ?v_52) ?v_40)) (or (or ?v_60 ?v_42) ?v_43)) (or (or P1 ?v_48) ?v_44)) (or (or ?v_22 ?v_45) ?v_63)) (or (or ?v_13 ?v_11) ?v_18)) (or (or P7 P1) ?v_57)) (or (or ?v_88 ?v_47) P22)) (or (or ?v_48 ?v_48) ?v_16)) (or (or ?v_49 ?v_1) ?v_42)) (or (or ?v_39 ?v_107) ?v_133)) (or (or ?v_31 ?v_40) ?v_70)) (or (or ?v_21 ?v_18) ?v_27)) (or (or P4 ?v_52) ?v_140)) (or (or ?v_53 ?v_100) ?v_17)) (or (or ?v_104 ?v_54) ?v_39)) (or (or P22 ?v_55) ?v_56)) (or (or ?v_93 ?v_124) ?v_1)) (or (or ?v_48 ?v_57) ?v_58)) (or (or ?v_51 ?v_81) ?v_111)) (or (or ?v_60 ?v_125) P18)) (or (or P0 ?v_141) ?v_72)) (or (or ?v_62 ?v_59) P7)) (or (or P8 ?v_19) ?v_30)) (or (or ?v_10 P22) ?v_1)) (or (or ?v_77 ?v_15) ?v_154)) (or (or ?v_22 ?v_68) P27)) (or (or ?v_23 ?v_64) ?v_113)) (or (or ?v_4 ?v_41) ?v_56)) (or (or P20 ?v_50) ?v_66)) (or (or ?v_40 ?v_6) ?v_67)) (or (or ?v_16 ?v_68) ?v_65)) (or (or ?v_62 ?v_21) ?v_69)) (or (or ?v_63 ?v_69) ?v_85)) (or (or ?v_26 ?v_132) ?v_27)) (or (or ?v_76 ?v_70) ?v_79)) (or (or ?v_71 P1) P21)) (or (or ?v_134 ?v_32) ?v_64)) (or (or ?v_72 ?v_106) ?v_73)) (or (or ?v_10 ?v_52) ?v_45)) (or (or ?v_74 P5) ?v_75)) (or (or ?v_38 ?v_76) ?v_119)) (or (or ?v_78 ?v_79) ?v_12)) (or (or P21 ?v_35) P24)) (or (or ?v_66 ?v_80) ?v_46)) (or (or ?v_81 ?v_16) ?v_78)) (or (or ?v_68 ?v_82) ?v_46)) (or (or ?v_83 ?v_84) ?v_87)) (or (or ?v_85 ?v_75) ?v_23)) (or (or ?v_56 P28) ?v_136)) (or (or ?v_17 ?v_70) ?v_86)) (or (or ?v_86 ?v_87) ?v_19)) (or (or ?v_73 ?v_78) ?v_56)) (or (or P6 ?v_91) ?v_88)) (or (or ?v_17 ?v_22) ?v_19)) (or (or ?v_89 ?v_50) ?v_126)) (or (or ?v_90 P10) P5)) (or (or ?v_46 ?v_52) ?v_17)) (or (or ?v_91 ?v_13) P19)) (or (or ?v_96 ?v_25) ?v_95)) (or (or ?v_102 ?v_94) ?v_120)) (or (or ?v_60 ?v_25) ?v_47)) (or (or ?v_95 ?v_68) ?v_96)) (or (or ?v_26 ?v_85) ?v_9)) (or (or ?v_25 ?v_50) ?v_97)) (or (or P13 ?v_80) ?v_98)) (or (or P15 ?v_97) ?v_11)) (or (or P2 ?v_13) P16)) (or (or ?v_99 ?v_48) ?v_121)) (or (or ?v_5 ?v_109) ?v_101)) (or (or ?v_102 ?v_103) ?v_6)) (or (or ?v_77 P14) ?v_91)) (or (or ?v_20 ?v_152) ?v_64)) (or (or ?v_105 ?v_115) ?v_106)) (or (or ?v_64 ?v_56) ?v_107)) (or (or P1 ?v_11) ?v_39)) (or (or ?v_1 ?v_72) ?v_108)) (or (or P3 ?v_28) ?v_85)) (or (or ?v_85 ?v_89) P8)) (or (or ?v_72 ?v_109) ?v_110)) (or (or ?v_144 ?v_28) ?v_111)) (or (or ?v_47 P10) P2)) (or (or ?v_92 ?v_29) ?v_17)) (or (or ?v_71 ?v_9) ?v_112)) (or (or ?v_51 P10) ?v_63)) (or (or ?v_113 ?v_69) P2)) (or (or ?v_88 ?v_117) ?v_96)) (or (or ?v_24 ?v_114) ?v_113)) (or (or ?v_101 P1) ?v_56)) (or (or ?v_115 P18) ?v_43)) (or (or ?v_116 ?v_49) ?v_117)) (or (or P1 ?v_118) P3)) (or (or ?v_111 ?v_119) ?v_27)) (or (or ?v_120 ?v_49) ?v_9)) (or (or ?v_5 P18) ?v_117)) (or (or P28 ?v_115) ?v_53)) (or (or P12 ?v_0) ?v_48)) (or (or ?v_72 ?v_121) ?v_67)) (or (or P4 ?v_102) ?v_135)) (or (or ?v_56 ?v_77) ?v_52)) (or (or ?v_35 P3) ?v_5)) (or (or ?v_69 ?v_54) ?v_34)) (or (or ?v_50 ?v_99) ?v_95)) (or (or P26 ?v_44) ?v_45)) (or (or P22 P26) ?v_122)) (or (or ?v_86 ?v_54) ?v_139)) (or (or ?v_58 ?v_128) ?v_123)) (or (or ?v_124 ?v_25) ?v_94)) (or (or ?v_25 ?v_40) ?v_125)) (or (or ?v_19 P9) ?v_126)) (or (or ?v_58 ?v_46) ?v_130)) (or (or ?v_128 ?v_129) P16)) (or (or ?v_121 ?v_27) P9)) (or (or ?v_114 ?v_21) P11)) (or (or ?v_38 ?v_79) P18)) (or (or ?v_130 ?v_5) ?v_49)) (or (or ?v_47 ?v_5) P8)) (or (or ?v_125 ?v_104) ?v_96)) (or (or ?v_75 ?v_112) ?v_63)) (or (or ?v_131 ?v_98) ?v_46)) (or (or ?v_50 ?v_132) ?v_45)) (or (or ?v_66 ?v_79) ?v_55)) (or (or ?v_95 ?v_96) ?v_57)) (or (or ?v_41 ?v_109) ?v_133)) (or (or ?v_50 ?v_34) ?v_134)) (or (or P3 P8) ?v_78)) (or (or ?v_91 ?v_39) ?v_14)) (or (or P22 ?v_65) ?v_118)) (or (or ?v_148 ?v_99) ?v_116)) (or (or ?v_87 ?v_70) ?v_46)) (or (or ?v_85 ?v_45) ?v_135)) (or (or ?v_117 ?v_25) ?v_49)) (or (or P9 ?v_116) ?v_125)) (or (or ?v_1 ?v_15) ?v_108)) (or (or ?v_135 ?v_35) ?v_64)) (or (or ?v_89 ?v_6) P19)) (or (or ?v_69 ?v_79) ?v_34)) (or (or ?v_37 ?v_24) ?v_6)) (or (or P23 ?v_99) ?v_34)) (or (or ?v_72 P9) P15)) (or (or ?v_136 ?v_66) ?v_35)) (or (or ?v_62 ?v_112) ?v_68)) (or (or ?v_137 ?v_122) ?v_145)) (or (or ?v_18 P16) ?v_51)) (or (or ?v_74 P25) ?v_49)) (or (or ?v_46 ?v_82) ?v_50)) (or (or ?v_146 ?v_138) ?v_151)) (or (or ?v_41 ?v_92) ?v_123)) (or (or ?v_37 ?v_91) ?v_104)) (or (or ?v_137 ?v_25) ?v_13)) (or (or ?v_15 P8) ?v_129)) (or (or P15 ?v_40) ?v_126)) (or (or ?v_3 ?v_42) ?v_86)) (or (or ?v_95 P26) P4)) (or (or P4 ?v_119) ?v_78)) (or (or P7 ?v_43) P9)) (or (or ?v_20 ?v_67) P21)) (or (or ?v_83 ?v_132) ?v_47)) (or (or ?v_86 ?v_134) ?v_10)) (or (or P13 ?v_127) ?v_68)) (or ?v_149 ?v_47)) (or (or ?v_138 ?v_143) ?v_25)) (or (or ?v_136 ?v_60) ?v_89)) (or (or P0 ?v_108) ?v_22)) (or (or ?v_135 ?v_46) ?v_44)) (or (or P2 ?v_24) P10)) (or (or ?v_129 ?v_52) ?v_102)) (or (or ?v_139 ?v_60) ?v_124)) (or (or P1 ?v_64) ?v_32)) (or (or ?v_9 ?v_99) P23)) (or (or ?v_9 ?v_140) ?v_70)) (or (or ?v_108 P14) ?v_103)) (or (or ?v_71 ?v_60) ?v_86)) (or (or P17 ?v_142) ?v_70)) (or (or ?v_66 P9) ?v_79)) (or (or ?v_41 ?v_80) ?v_117)) (or (or ?v_136 ?v_141) ?v_128)) (or (or ?v_140 P26) ?v_73)) (or (or P27 ?v_60) ?v_69)) (or (or ?v_142 ?v_119) P0)) (or (or ?v_65 ?v_131) ?v_128)) (or (or ?v_25 ?v_114) ?v_143)) (or (or ?v_24 ?v_91) P0)) (or (or ?v_144 ?v_145) P25)) (or (or ?v_1 ?v_146) ?v_35)) (or (or P22 P28) ?v_143)) (or (or P11 ?v_9) ?v_39)) (or (or P3 ?v_104) ?v_10)) (or (or ?v_49 ?v_126) ?v_30)) (or (or ?v_101 ?v_53) ?v_51)) (or (or ?v_83 P3) ?v_44)) (or (or ?v_79 ?v_26) ?v_49)) (or (or ?v_82 P29) ?v_85)) (or (or ?v_119 ?v_137) ?v_86)) (or (or P0 ?v_21) ?v_143)) (or (or ?v_147 ?v_148) ?v_98)) (or (or ?v_114 ?v_19) ?v_89)) (or (or ?v_25 ?v_28) ?v_125)) (or (or P3 ?v_114) ?v_1)) (or (or ?v_38 ?v_131) ?v_62)) (or (or ?v_62 P13) P23)) (or (or ?v_69 ?v_110) ?v_14)) (or (or P16 ?v_126) ?v_129)) (or (or P24 ?v_153) ?v_122)) (or (or P8 ?v_41) ?v_38)) (or (or ?v_25 ?v_118) ?v_144)) (or (or ?v_143 ?v_9) ?v_115)) (or (or ?v_11 ?v_95) ?v_46)) (or (or ?v_127 ?v_127) ?v_56)) (or (or P15 ?v_17) ?v_103)) (or (or ?v_82 ?v_4) ?v_85)) (or (or ?v_73 ?v_148) ?v_141)) (or (or ?v_143 ?v_60) ?v_12)) (or (or ?v_29 P14) ?v_0)) (or (or ?v_41 ?v_107) ?v_109)) (or (or P27 ?v_109) P2)) (or (or ?v_104 ?v_41) P8)) (or (or P23 P8) ?v_111)) (or (or ?v_65 ?v_83) ?v_146)) (or (or P0 ?v_132) ?v_41)) (or (or ?v_85 P22) P17)) (or (or ?v_98 ?v_131) ?v_54)) (or (or ?v_76 ?v_37) ?v_32)) (or (or ?v_28 ?v_28) ?v_15)) (or (or ?v_80 ?v_43) ?v_39)) (or (or ?v_30 ?v_26) ?v_122)) (or (or ?v_138 ?v_30) P10)) (or (or ?v_140 ?v_81) ?v_6)) (or (or ?v_135 ?v_66) ?v_34)) (or (or P23 ?v_115) ?v_98)) (or (or ?v_3 ?v_91) ?v_105)) (or (or P0 ?v_112) ?v_37)) (or (or ?v_66 ?v_61) ?v_136)) (or (or P27 ?v_138) P5)) (or (or ?v_68 ?v_105) ?v_137)) (or (or ?v_147 ?v_144) ?v_51)) (or (or ?v_141 ?v_93) ?v_102)) (or (or ?v_19 ?v_70) ?v_64)) (or (or ?v_14 ?v_105) ?v_67)) (or (or ?v_1 P5) ?v_92)) (or (or ?v_110 ?v_144) ?v_136)) (or (or ?v_59 P25) ?v_58)) (or (or ?v_122 ?v_29) ?v_17)) (or (or ?v_13 ?v_63) ?v_105)) (or (or ?v_131 ?v_3) ?v_53)) (or (or P23 ?v_0) ?v_22)) (or (or ?v_52 ?v_68) ?v_83)) (or (or ?v_109 P11) P17)) (or (or ?v_3 ?v_122) P4)) (or (or ?v_77 P2) ?v_56)) (or (or ?v_1 ?v_56) ?v_113)) (or (or ?v_145 ?v_1) ?v_52)) (or (or ?v_4 ?v_21) ?v_0)) (or (or ?v_82 P11) P28)) (or (or P29 P9) ?v_104)) (or (or ?v_51 ?v_74) ?v_137)) (or ?v_149 ?v_60)) (or (or ?v_98 ?v_140) ?v_112)) (or (or ?v_107 ?v_126) ?v_67)) (or (or P23 ?v_15) ?v_88)) (or (or ?v_134 ?v_55) ?v_64)) (or (or ?v_94 ?v_128) ?v_102)) (or (or P8 ?v_50) ?v_139)) (or (or ?v_119 ?v_77) ?v_38)) (or (or ?v_91 P3) ?v_123)) (or (or P25 ?v_150) ?v_57)) (or (or P0 P15) ?v_81)) (or (or ?v_102 ?v_89) ?v_75)) (or (or ?v_24 ?v_99) ?v_4)) (or (or ?v_134 ?v_134) P19)) (or (or ?v_91 ?v_53) ?v_30)) (or (or ?v_97 ?v_141) ?v_136)) (or (or ?v_35 ?v_77) ?v_52)) (or (or ?v_22 ?v_115) ?v_53)) (or (or ?v_85 P15) ?v_105)) (or (or P26 ?v_29) ?v_102)) (or (or ?v_128 P8) P3)) (or (or ?v_46 ?v_111) ?v_133)) (or (or ?v_43 ?v_144) P21)) (or (or ?v_122 ?v_11) ?v_135)) (or (or ?v_27 ?v_142) ?v_80)) (or (or ?v_151 ?v_78) P13)) (or (or ?v_101 ?v_113) P13)) (or (or ?v_94 ?v_37) ?v_34)) (or (or P8 ?v_53) ?v_50)) (or (or ?v_100 P8) ?v_124)) (or (or ?v_88 ?v_101) ?v_51)) (or (or ?v_142 P29) ?v_16)) (or (or ?v_26 ?v_41) P0)) (or (or ?v_38 ?v_49) ?v_12)) (or (or ?v_91 ?v_90) ?v_122)) (or (or P21 ?v_133) ?v_52)) (or (or ?v_86 ?v_108) ?v_23)) (or (or ?v_46 ?v_24) ?v_53)) (or (or ?v_56 ?v_53) ?v_120)) (or (or ?v_18 ?v_80) ?v_140)) (or (or ?v_4 P23) ?v_61)) (or (or ?v_80 ?v_120) ?v_109)) (or (or ?v_52 ?v_57) ?v_32)) (or (or ?v_142 ?v_34) ?v_54)) (or (or ?v_85 ?v_152) ?v_49)) (or (or ?v_69 ?v_14) ?v_27)) (or (or ?v_115 ?v_5) ?v_81)) (or (or ?v_114 ?v_32) ?v_137)) (or (or ?v_135 ?v_83) ?v_61)) (or (or ?v_55 ?v_55) ?v_77)) (or (or ?v_42 ?v_70) ?v_126)) (or (or ?v_114 ?v_11) ?v_126)) (or (or ?v_116 ?v_79) ?v_9)) (or (or ?v_11 ?v_109) ?v_146)) (or (or ?v_86 ?v_44) P27)) (or (or ?v_70 P15) ?v_77)) (or (or ?v_20 ?v_101) P10)) (or (or ?v_14 ?v_140) ?v_69)) (or (or ?v_115 P9) ?v_70)) (or (or ?v_116 ?v_53) ?v_80)) (or (or ?v_15 ?v_86) P0)) (or (or ?v_35 ?v_10) ?v_57)) (or (or ?v_125 ?v_103) ?v_13)) (or (or ?v_48 P10) ?v_100)) (or (or ?v_14 ?v_137) ?v_102)) (or (or ?v_24 ?v_133) ?v_27)) (or (or ?v_150 ?v_23) P29)) (or (or P2 ?v_128) ?v_6)) (or (or ?v_6 ?v_13) ?v_63)) (or (or ?v_104 ?v_145) ?v_68)) (or (or P13 ?v_81) ?v_108)) (or (or ?v_121 ?v_153) ?v_106)) (or (or ?v_134 ?v_48) ?v_80)) (or (or P12 ?v_94) ?v_142)) (or (or ?v_146 ?v_114) ?v_5)) (or (or ?v_59 ?v_130) ?v_123)) (or (or ?v_44 P8) ?v_146)) (or (or ?v_42 ?v_10) ?v_116)) (or (or ?v_57 ?v_151) ?v_10)) (or (or ?v_1 P11) ?v_51)) (or (or P23 ?v_119) ?v_79)) (or (or ?v_104 ?v_130) ?v_103)) (or (or ?v_49 ?v_51) ?v_55)) (or (or P26 ?v_4) ?v_135)) (or (or P1 ?v_68) ?v_50)) (or (or ?v_16 P27) ?v_48)) (or (or ?v_99 ?v_60) ?v_118)) (or (or P25 ?v_62) ?v_124)) (or (or P21 ?v_14) ?v_30)) (or (or ?v_72 ?v_22) ?v_134)) (or (or ?v_27 P29) ?v_103)) (or (or ?v_140 ?v_153) ?v_88)) (or (or ?v_152 ?v_69) P11)) (or (or ?v_153 ?v_122) ?v_146)) (or (or ?v_139 ?v_95) ?v_98)) (or (or P6 ?v_22) ?v_5)) (or (or ?v_21 ?v_39) ?v_62)) (or (or ?v_143 ?v_121) ?v_123)) (or (or ?v_45 ?v_0) P17)) (or (or ?v_77 ?v_24) ?v_116)) (or (or ?v_77 ?v_121) ?v_150)) (or (or ?v_87 ?v_130) ?v_142)) (or (or ?v_86 P24) ?v_102)) (or (or P28 ?v_87) ?v_77)) (or (or ?v_59 ?v_22) ?v_34)) (or (or ?v_116 ?v_20) ?v_108)) (or (or ?v_151 ?v_125) ?v_121)) (or (or ?v_110 ?v_101) ?v_135)) (or (or ?v_28 ?v_113) ?v_153)) (or (or P25 ?v_9) ?v_115)) (or (or ?v_107 ?v_11) ?v_136)) (or (or ?v_106 ?v_142) ?v_39)) (or (or P5 ?v_50) P21)) (or (or ?v_130 P3) ?v_143)) (or (or ?v_45 ?v_141) ?v_126)) (or (or ?v_90 P9) ?v_39)) (or (or P6 ?v_47) ?v_53)) (or (or ?v_108 ?v_141) ?v_98)) (or (or ?v_146 ?v_27) ?v_95)) (or (or ?v_102 ?v_40) P3)) (or (or ?v_15 ?v_53) ?v_30)) (or (or P27 ?v_129) ?v_68)) (or (or ?v_80 ?v_114) ?v_81)) (or (or ?v_132 ?v_152) P1)) (or (or ?v_135 ?v_135) ?v_130)) (or (or ?v_6 ?v_142) ?v_117)) (or (or ?v_55 ?v_114) ?v_100)) (or (or ?v_30 ?v_0) ?v_93)) (or (or ?v_133 ?v_104) ?v_154)) (or (or ?v_92 P16) ?v_32)) (or (or ?v_25 ?v_5) (not P0))) (or (or ?v_96 ?v_119) ?v_45)) (or (or ?v_39 ?v_135) ?v_69)) (or (or ?v_147 ?v_86) ?v_81)) (or (or ?v_128 ?v_104) ?v_5)) (or (or ?v_51 ?v_4) ?v_131)) (or (or ?v_85 ?v_133) P1)) (or (or ?v_32 ?v_104) ?v_77)) (or (or ?v_138 ?v_25) ?v_40)) (or (or ?v_76 ?v_58) ?v_131)) (or (or ?v_35 ?v_128) P5)) (or (or ?v_146 ?v_151) P13)) (or (or P5 ?v_28) ?v_57)) (or (or ?v_61 ?v_54) ?v_75)) (or (or ?v_77 P9) ?v_31)) (or (or ?v_141 ?v_3) ?v_42)) (or (or P24 ?v_70) ?v_62)) (or (or ?v_75 ?v_120) P25)) (or (or ?v_116 ?v_110) ?v_70)) (or (or ?v_152 ?v_76) P13)) (or (or ?v_6 ?v_65) ?v_60)) (or (or P25 ?v_114) ?v_70)) (or (or P14 ?v_104) ?v_41)) (or (or ?v_134 ?v_136) ?v_28)) (or (or P22 ?v_5) P6))))))))))))))))))))))
(check-sat)
(exit)
